; benchmark generated from python API
(set-info :status unknown)
(declare-datatypes ((RealState 0)) (((RMk1 (rval1 Real)) (RMk2 (rval2 Real)))))
 (assert
 (exists ((|v11:0_st| RealState) (val!5972 Real) )(exists ((|v10:1_st| RealState) (val!5973 Real) )(exists ((|v9:2_st| RealState) (val!5974 Real) )(exists ((|v8:3_st| RealState) (val!5975 Real) )(forall ((|v7:4| Real) )(forall ((|v6:5| Real) )(forall ((|v5:6| Real) )(forall ((|v4:7| Real) )(exists ((|v3:8_st| RealState) (val!5976 Real) )(exists ((|v2:9_st| RealState) (val!5977 Real) )(exists ((|v1:10_st| RealState) (val!5978 Real) )(exists ((|v0:11_st| RealState) (val!5979 Real) )(let ((?x2397 (rval2 |v3:8_st|)))
 (let ((?x1586 (* 20.0 ?x2397)))
 (let ((?x459 (+ (+ (+ (* 15.0 |v7:4|) (rval2 |v2:9_st|)) (* 7.0 (rval2 |v9:2_st|))) ?x1586)))
 (let ((?x534 (+ (+ (+ (* 6.0 ?x2397) (* (- 15.0) |v7:4|)) (* (- 11.0) ?x2397)) (* (- 9.0) ?x2397))))
 (let ((?x977 (- 6.0)))
 (let ((?x2196 (* 3.0 |v4:7|)))
 (let ((?x555 (* 12.0 |v7:4|)))
 (let ((?x829 (+ (+ (+ (* 13.0 (rval2 |v9:2_st|)) (* (- 4.0) (rval2 |v9:2_st|))) ?x555) ?x2196)))
 (let ((?x125 (* 17.0 |v7:4|)))
 (let ((?x2177 (* 20.0 |v7:4|)))
 (let ((?x1418 (+ (+ (* (- 14.0) (rval2 |v2:9_st|)) (* (- 8.0) (rval2 |v9:2_st|))) ?x2177)))
 (let (($x2088 (and (and (<= (+ ?x1418 ?x125) 16.0) (<= ?x829 ?x977)) (and (<= ?x534 7.0) (<= ?x459 0.0)))))
 (let ((?x721 (rval2 |v0:11_st|)))
 (let ((?x1114 (* 16.0 ?x721)))
 (let ((?x496 (- 19.0)))
 (let ((?x1979 (* ?x496 |v6:5|)))
 (let ((?x2506 (+ (+ (+ (* 15.0 (rval2 |v8:3_st|)) (* 6.0 (rval2 |v9:2_st|))) ?x1979) ?x1114)))
 (let ((?x289 (* 19.0 |v7:4|)))
 (let ((?x233 (+ (+ (* 20.0 (rval2 |v8:3_st|)) (* (- 20.0) ?x2397)) (* 0.0 (rval2 |v10:1_st|)))))
 (let ((?x497 (* 18.0 ?x2397)))
 (let ((?x1999 (+ (+ (+ (* (- 1.0) (rval2 |v11:0_st|)) (* (- 14.0) ?x2397)) |v4:7|) ?x497)))
 (let ((?x220 (rval2 |v11:0_st|)))
 (let ((?x2503 (- 3.0)))
 (let ((?x1776 (* ?x2503 ?x220)))
 (let ((?x1182 (+ (+ (+ (* 16.0 (rval2 |v2:9_st|)) (* 17.0 ?x220)) ?x1776) (* (- 12.0) |v4:7|))))
 (let (($x1257 (and (and (<= ?x1182 8.0) (<= ?x1999 6.0)) (and (<= (+ ?x233 ?x289) 7.0) (<= ?x2506 7.0)))))
 (let ((?x961 (- 2.0)))
 (let ((?x1644 (+ (+ (* 17.0 (rval2 |v9:2_st|)) (* (- 13.0) ?x220)) (* (- 5.0) (rval2 |v1:10_st|)))))
 (let ((?x1415 (- 15.0)))
 (let ((?x2250 (rval2 |v10:1_st|)))
 (let ((?x35 (* 19.0 ?x2250)))
 (let ((?x1743 (+ (+ (+ (* 8.0 (rval2 |v2:9_st|)) (* (- 9.0) (rval2 |v8:3_st|))) ?x35) (* ?x2503 (rval2 |v1:10_st|)))))
 (let ((?x2387 (- 1.0)))
 (let ((?x908 (+ (+ (+ (* (- 11.0) ?x220) (* 11.0 ?x2250)) ?x721) (* (- 4.0) (rval2 |v1:10_st|)))))
 (let ((?x1164 (+ (+ (* (- 5.0) (rval2 |v2:9_st|)) (* 3.0 |v6:5|)) (* (- 8.0) |v4:7|))))
 (let (($x313 (and (and (<= (+ ?x1164 (* ?x977 (rval2 |v2:9_st|))) 17.0) (<= ?x908 ?x2387)) (and (<= ?x1743 ?x1415) (<= (+ ?x1644 ?x2177) ?x961)))))
 (let ((?x698 (+ (+ (* (- 5.0) ?x220) (* 13.0 (rval2 |v1:10_st|))) (* (- 13.0) (rval2 |v1:10_st|)))))
 (let ((?x2072 (- 14.0)))
 (let ((?x3301 (+ (+ (+ (* (- 10.0) (rval2 |v8:3_st|)) (* 15.0 ?x2397)) (* 13.0 |v5:6|)) (* ?x2072 ?x721))))
 (let (($x1021 (and (<= ?x3301 ?x2072) (<= (+ ?x698 (* (- 18.0) (rval2 |v9:2_st|))) 10.0))))
 (let ((?x3147 (rval2 |v9:2_st|)))
 (let ((?x2786 (* 15.0 ?x3147)))
 (let ((?x2000 (+ (+ (+ (* 10.0 (rval2 |v2:9_st|)) (* 2.0 |v6:5|)) (* 12.0 ?x2250)) ?x2786)))
 (let ((?x71 (- 9.0)))
 (let (($x2411 (<= (+ (+ (+ |v6:5| (* ?x2503 (rval2 |v8:3_st|))) (* 10.0 (rval2 |v8:3_st|))) ?x1776) ?x71)))
 (let (($x1214 (or (and (and (and $x2411 (<= ?x2000 6.0)) $x1021) $x313) (and $x1257 $x2088))))
 (let ((?x3138 (rval2 |v1:10_st|)))
 (let ((?x513 (* 2.0 ?x3138)))
 (let ((?x512 (+ (+ (+ (* (- 10.0) |v5:6|) (* 11.0 ?x2250)) (* (- 8.0) ?x220)) ?x513)))
 (let ((?x1709 (- 16.0)))
 (let ((?x1590 (+ (+ (+ (* (- 11.0) ?x3138) (* ?x2387 |v7:4|)) (* ?x977 |v7:4|)) (* 20.0 ?x3138))))
 (let ((?x2572 (- 4.0)))
 (let ((?x594 (+ (+ (+ (* (- 8.0) ?x3138) (* 14.0 (rval2 |v8:3_st|))) (* 3.0 |v5:6|)) (* (- 17.0) ?x220))))
 (let ((?x1319 (- 13.0)))
 (let ((?x2683 (* ?x1319 |v5:6|)))
 (let ((?x1157 (+ (+ (+ (* (- 12.0) ?x2250) (* 15.0 ?x2397)) (* ?x2387 (rval2 |v8:3_st|))) ?x2683)))
 (let (($x1768 (and (and (<= ?x1157 2.0) (<= ?x594 ?x2572)) (and (<= ?x1590 ?x1709) (<= ?x512 3.0)))))
 (let ((?x413 (* 6.0 |v5:6|)))
 (let ((?x3118 (+ (+ (+ (* 9.0 ?x2397) (* 10.0 |v6:5|)) (* (- 11.0) |v4:7|)) ?x413)))
 (let ((?x203 (* 2.0 |v6:5|)))
 (let (($x1560 (<= (+ (+ (+ (* 5.0 |v5:6|) (* 8.0 ?x220)) (* 15.0 |v4:7|)) ?x203) 2.0)))
 (let (($x2564 (<= (+ (+ (+ (* (- 17.0) ?x2250) (* 12.0 |v4:7|)) (* ?x496 ?x2250)) ?x721) 2.0)))
 (let ((?x3044 (- 20.0)))
 (let ((?x1248 (* ?x3044 ?x2397)))
 (let ((?x847 (+ (+ (+ (* (- 12.0) ?x3147) (* 3.0 |v5:6|)) (* (- 12.0) ?x2397)) ?x1248)))
 (let (($x2370 (and (and (and (<= ?x847 19.0) $x2564) (and $x1560 (<= ?x3118 9.0))) $x1768)))
 (let ((?x1297 (+ (+ (+ (* (- 17.0) |v7:4|) (* 3.0 ?x3147)) (* 0.0 |v4:7|)) (* ?x1319 ?x3147))))
 (let ((?x2519 (* 10.0 ?x220)))
 (let ((?x2946 (- 12.0)))
 (let ((?x1073 (* ?x2946 |v7:4|)))
 (let (($x2817 (<= (+ (+ (+ (* 12.0 (rval2 |v2:9_st|)) (* (- 18.0) |v4:7|)) ?x1073) ?x2519) 17.0)))
 (let ((?x1642 (- 18.0)))
 (let ((?x273 (rval2 |v2:9_st|)))
 (let ((?x3330 (* 13.0 ?x273)))
 (let (($x480 (<= (+ (+ (+ (* 10.0 |v5:6|) (* (- 10.0) |v5:6|)) (* ?x1415 ?x2397)) ?x3330) ?x1642)))
 (let ((?x2096 (- 10.0)))
 (let ((?x3057 (* 17.0 |v5:6|)))
 (let (($x952 (<= (+ (+ (+ (* ?x977 ?x3138) (* 5.0 ?x2250)) (* (- 7.0) ?x3147)) ?x3057) ?x2096)))
 (let (($x2799 (<= (+ (+ (+ (* ?x1709 ?x3138) (* 19.0 ?x2397)) ?x273) (* 4.0 ?x2397)) ?x2096)))
 (let ((?x217 (* 6.0 |v6:5|)))
 (let ((?x752 (+ (+ (+ (* 7.0 |v7:4|) (* (- 8.0) |v5:6|)) (* 17.0 ?x2250)) ?x217)))
 (let ((?x159 (* 7.0 ?x721)))
 (let (($x2570 (<= (+ (+ (+ (* 12.0 ?x3147) (* 17.0 |v6:5|)) (* 5.0 |v5:6|)) ?x159) ?x1319)))
 (let ((?x2830 (+ (+ (+ (* 5.0 ?x3138) (* 3.0 ?x3138)) (* ?x496 ?x220)) (* 16.0 |v4:7|))))
 (let (($x2755 (and (and (and (<= ?x2830 ?x977) $x2570) (and (<= ?x752 14.0) $x2799)) (and (or $x952 $x480) (and $x2817 (<= ?x1297 14.0))))))
 (let ((?x2648 (- 8.0)))
 (let ((?x30 (+ (+ (+ (* 20.0 ?x220) (* ?x1709 ?x721)) (* 3.0 |v5:6|)) (* ?x3044 ?x2250))))
 (let ((?x1343 (* 9.0 ?x721)))
 (let (($x522 (<= (+ (+ (+ (* 8.0 |v6:5|) (* 6.0 ?x3138)) (* ?x2503 |v4:7|)) ?x1343) ?x1415)))
 (let ((?x1633 (- 7.0)))
 (let ((?x2120 (* ?x1633 |v6:5|)))
 (let (($x79 (<= (+ (+ (+ (* ?x1319 |v4:7|) (* 4.0 |v4:7|)) (* (- 17.0) ?x3138)) ?x2120) ?x1642)))
 (let (($x1019 (<= (+ (+ (+ (* ?x2387 |v6:5|) (* 14.0 ?x2397)) (* 4.0 ?x273)) ?x159) ?x2387)))
 (let ((?x854 (+ (+ (+ (* ?x1415 ?x273) (* 5.0 ?x2397)) (* ?x496 ?x220)) (* 8.0 ?x2397))))
 (let ((?x1044 (* ?x2946 |v5:6|)))
 (let ((?x1492 (+ (+ (+ (* ?x496 ?x3147) (* ?x2572 (rval2 |v8:3_st|))) (* 5.0 |v5:6|)) ?x1044)))
 (let ((?x1075 (+ (+ (+ (* 0.0 |v7:4|) (* 16.0 |v6:5|)) (* ?x977 ?x2250)) (* ?x1415 |v6:5|))))
 (let (($x1390 (<= (+ (+ (+ ?x1979 (* 3.0 ?x3147)) (* ?x2648 ?x2250)) (* ?x2946 ?x273)) 16.0)))
 (let (($x2146 (and (and $x1390 (<= ?x1075 ?x961)) (and (<= ?x1492 ?x1319) (<= ?x854 13.0)))))
 (let (($x1036 (<= (+ (+ (+ ?x497 (* ?x2503 ?x2397)) (* ?x1642 |v6:5|)) (* (- 17.0) ?x273)) 19.0)))
 (let (($x33 (<= (+ (+ (+ (* 2.0 ?x220) (* 19.0 ?x3147)) (* 14.0 ?x220)) |v6:5|) ?x2648)))
 (let (($x519 (<= (+ (+ (+ (* 13.0 ?x2397) (* 4.0 ?x2397)) ?x1343) (* 7.0 ?x3147)) ?x1633)))
 (let ((?x1477 (- 5.0)))
 (let ((?x3071 (rval2 |v8:3_st|)))
 (let ((?x2749 (- 17.0)))
 (let ((?x3119 (* ?x2749 ?x3071)))
 (let (($x3258 (<= (+ (+ (+ (* 8.0 ?x721) (* ?x2387 ?x2250)) (* ?x1709 |v6:5|)) ?x3119) ?x1477)))
 (let ((?x2885 (* 10.0 ?x2250)))
 (let (($x2455 (<= (+ (+ (+ (* ?x2749 |v7:4|) (* 5.0 ?x3071)) (* 7.0 ?x273)) ?x2885) 14.0)))
 (let ((?x1071 (+ (+ (+ (* ?x2946 ?x2397) (* ?x1319 ?x273)) (* 3.0 |v6:5|)) (* ?x2946 ?x220))))
 (let (($x1503 (<= (+ (+ (+ (* 5.0 ?x3138) ?x413) (* ?x2749 ?x273)) (* 7.0 |v5:6|)) ?x2749)))
 (let (($x2407 (<= (+ (+ (+ (* ?x1633 ?x220) (* ?x2749 |v4:7|)) (* ?x1415 ?x2397)) ?x1114) 3.0)))
 (let (($x2964 (or (and (and $x2407 $x1503) (and (<= ?x1071 11.0) $x2455)) (and (and $x3258 $x519) (and $x33 $x1036)))))
 (let (($x993 (and $x2964 (and $x2146 (and (and $x1019 $x79) (and $x522 (<= ?x30 ?x2648)))))))
 (let (($x3080 (<= (+ (+ (+ (* 15.0 |v5:6|) ?x273) (* ?x2096 |v6:5|)) (* 8.0 ?x3147)) ?x2749)))
 (let (($x633 (<= (+ (+ (+ (* 11.0 |v5:6|) (* 11.0 ?x2397)) ?x125) (* ?x1415 ?x220)) 9.0)))
 (let ((?x636 (+ (+ (+ (* 8.0 |v7:4|) (* ?x2072 |v6:5|)) (* 13.0 ?x3071)) (* ?x2572 ?x721))))
 (let ((?x3490 (* ?x1709 ?x721)))
 (let (($x1916 (<= (+ (+ (+ (* ?x1477 ?x3147) (* 19.0 ?x2397)) (* ?x1477 |v7:4|)) ?x3490) ?x1319)))
 (let ((?x1221 (+ (+ (+ (* ?x1709 ?x3071) (* ?x71 ?x2250)) (* 7.0 ?x220)) (* ?x1477 ?x2250))))
 (let (($x2687 (<= (+ (+ (+ ?x2250 (* 7.0 |v6:5|)) (* 16.0 ?x273)) (* 14.0 |v7:4|)) 3.0)))
 (let ((?x1193 (* 15.0 |v7:4|)))
 (let (($x1084 (<= (+ (+ (+ (* 8.0 ?x3147) (* 18.0 ?x273)) (* ?x2572 |v7:4|)) ?x1193) ?x1415)))
 (let (($x353 (<= (+ (+ (+ (* ?x2572 |v4:7|) ?x3119) (* ?x2387 ?x220)) (* 12.0 ?x721)) ?x2749)))
 (let (($x395 (and (or (or $x353 $x1084) (and $x2687 (<= ?x1221 19.0))) (and (and $x1916 (<= ?x636 6.0)) (and $x633 $x3080)))))
 (let (($x2558 (<= (+ (+ (+ (* ?x977 ?x3138) (* 6.0 ?x2397)) ?x413) (* 12.0 ?x721)) ?x2503)))
 (let ((?x871 (+ (+ (+ (* ?x2648 |v7:4|) (* 15.0 ?x721)) (* ?x977 ?x2250)) (* ?x2096 ?x3138))))
 (let ((?x1842 (+ (+ (+ (* 9.0 |v7:4|) (* 15.0 ?x273)) (* ?x1633 ?x273)) (* ?x1319 ?x2250))))
 (let ((?x2598 (+ (+ (+ (* ?x1633 ?x2250) (* 3.0 ?x3138)) (* 15.0 ?x220)) (* ?x1319 ?x721))))
 (let (($x2763 (and (and (<= ?x2598 14.0) (<= ?x1842 5.0)) (and (<= ?x871 ?x1633) $x2558))))
 (let ((?x599 (+ (+ (+ (* ?x3044 |v6:5|) (* 3.0 ?x3147)) (* ?x2572 ?x2250)) (* 10.0 ?x2397))))
 (let (($x1424 (<= (+ (+ (+ (* 10.0 ?x273) (* 3.0 |v6:5|)) |v4:7|) (* 6.0 ?x220)) ?x2749)))
 (let ((?x367 (* ?x1319 |v6:5|)))
 (let (($x3331 (<= (+ (+ (+ (* 5.0 ?x3138) (* 9.0 |v5:6|)) (* ?x1633 ?x3138)) ?x367) 6.0)))
 (let ((?x743 (* ?x2648 |v7:4|)))
 (let (($x3419 (<= (+ (+ (+ (* 6.0 ?x3147) (* 2.0 ?x3071)) (* ?x1319 |v7:4|)) ?x743) ?x961)))
 (let (($x2582 (and (or (and (and $x3419 $x3331) (and $x1424 (<= ?x599 ?x961))) $x2763) $x395)))
 (let (($x1161 (not (= |v0:11_st| (RMk1 val!5979)))))
 (let (($x1272 (not (= |v1:10_st| (RMk1 val!5978)))))
 (let (($x1346 (not (= |v2:9_st| (RMk1 val!5977)))))
 (let (($x2005 (not (= |v3:8_st| (RMk1 val!5976)))))
 (let (($x1367 (not (= |v8:3_st| (RMk1 val!5975)))))
 (let (($x3058 (not (= |v9:2_st| (RMk1 val!5974)))))
 (let (($x1294 (not (= |v10:1_st| (RMk1 val!5973)))))
 (let (($x2915 (not (= |v11:0_st| (RMk1 val!5972)))))
 (and $x2915 $x1294 $x3058 $x1367 $x2005 $x1346 $x1272 $x1161 (and (and $x2582 $x993) (and (and $x2755 $x2370) $x1214)))))))))))))))))))))))))))))))))))))))))))))))))))))))))))))))))))))))))))))))))))))))))))))))))))))))))))))))))))))))))))))))))))))))))))))))))))))
 )
 )
 )
 )
 )
 )
 )
 )
 )
 )
 )
 )
(check-sat)
